Route #1: 44 40 64 34 6 36 42
Route #2: 53 39 46 4 14 50
Route #3: 11 35 49 1 19 20
Route #4: 7 29 24 59 8 23
Route #5: 16 43 27 10 51 32 37 65 41
Route #6: 17 38 66 2 26 18 12 58
Route #7: 28 13 56 15 5
Route #8: 60 3 57 30 61 62
Route #9: 9 48 63 25 21 54 55 22 52 45
Route #10: 31 33 47
Cost 1117